unknown
(model
; cardinality of BoundSet is 2
(declare-sort BoundSet 0)
; rep: @uc_BoundSet_0
; rep: @uc_BoundSet_1
; cardinality of UnboundSet is 1
(declare-sort UnboundSet 0)
(declare-fun groundTerm_3 () UnboundSet)
(define-fun IsBlackAndBrown ((BOUND_VARIABLE_491 BoundSet)) Bool true)
(define-fun IsShakingWater ((BOUND_VARIABLE_491 BoundSet)) Bool true)
(define-fun IsOnItself ((BOUND_VARIABLE_491 BoundSet)) Bool true)
(define-fun IsShakingItself ((BOUND_VARIABLE_491 BoundSet)) Bool false)
(define-fun IsDry ((BOUND_VARIABLE_491 BoundSet)) Bool false)
)
sat
(model
; cardinality of BoundSet is 1
(declare-sort BoundSet 0)
; rep: @uc_BoundSet_0
; cardinality of UnboundSet is 1
(declare-sort UnboundSet 0)
(declare-fun groundTerm_7 () UnboundSet)
(define-fun IsBlackAndBrown ((BOUND_VARIABLE_500 BoundSet)) Bool true)
(define-fun IsShakingWater ((BOUND_VARIABLE_500 BoundSet)) Bool true)
(define-fun IsOnItself ((BOUND_VARIABLE_500 BoundSet)) Bool true)
(define-fun IsShakingItself ((BOUND_VARIABLE_500 BoundSet)) Bool false)
(define-fun IsDry ((BOUND_VARIABLE_500 BoundSet)) Bool false)
)
